c FILE: i080-342

c SOURCE: From steinlib

c DESCRIPTION: Steinlib instance with 80 nodes and 632 edges.

p edge 80 632
e 1 7
e 1 9
e 1 11
e 1 13
e 1 14
e 1 15
e 1 34
e 1 35
e 1 40
e 1 43
e 1 50
e 1 52
e 1 53
e 1 55
e 1 59
e 1 60
e 1 64
e 1 65
e 1 67
e 1 73
e 1 74
e 2 6
e 2 7
e 2 14
e 2 18
e 2 20
e 2 23
e 2 25
e 2 28
e 2 29
e 2 30
e 2 31
e 2 39
e 2 44
e 2 47
e 2 50
e 2 63
e 2 68
e 2 75
e 2 76
e 3 8
e 3 14
e 3 17
e 3 18
e 3 21
e 3 37
e 3 47
e 3 48
e 3 51
e 3 55
e 3 58
e 3 60
e 3 65
e 3 67
e 3 72
e 3 73
e 3 74
e 3 76
e 4 6
e 4 11
e 4 15
e 4 21
e 4 22
e 4 24
e 4 37
e 4 47
e 4 49
e 4 53
e 4 66
e 4 67
e 4 68
e 4 71
e 4 74
e 4 76
e 4 77
e 4 79
e 4 80
e 5 11
e 5 15
e 5 18
e 5 20
e 5 24
e 5 43
e 5 53
e 5 57
e 5 67
e 5 72
e 6 7
e 6 13
e 6 15
e 6 19
e 6 22
e 6 25
e 6 44
e 6 66
e 6 68
e 7 8
e 7 26
e 7 28
e 7 31
e 7 32
e 7 36
e 7 39
e 7 45
e 7 49
e 7 51
e 7 53
e 7 60
e 7 66
e 7 67
e 7 70
e 7 74
e 7 78
e 8 11
e 8 13
e 8 14
e 8 21
e 8 23
e 8 29
e 8 42
e 8 49
e 8 50
e 8 51
e 8 57
e 8 61
e 8 66
e 8 72
e 8 74
e 9 10
e 9 13
e 9 18
e 9 20
e 9 22
e 9 27
e 9 28
e 9 36
e 9 38
e 9 41
e 9 49
e 9 50
e 9 59
e 9 67
e 9 70
e 9 71
e 9 72
e 10 14
e 10 15
e 10 16
e 10 18
e 10 19
e 10 20
e 10 22
e 10 33
e 10 39
e 10 41
e 10 54
e 10 56
e 10 61
e 10 70
e 10 74
e 10 77
e 10 78
e 11 12
e 11 14
e 11 33
e 11 37
e 11 39
e 11 43
e 11 45
e 11 47
e 11 59
e 11 66
e 11 80
e 12 13
e 12 25
e 12 29
e 12 32
e 12 34
e 12 41
e 12 46
e 12 50
e 12 54
e 13 14
e 13 15
e 13 21
e 13 22
e 13 26
e 13 30
e 13 33
e 13 37
e 13 40
e 13 47
e 13 48
e 13 51
e 13 60
e 13 63
e 13 65
e 13 67
e 13 69
e 13 75
e 13 76
e 14 16
e 14 19
e 14 20
e 14 23
e 14 24
e 14 27
e 14 37
e 14 39
e 14 47
e 14 48
e 14 52
e 14 58
e 14 62
e 14 64
e 14 65
e 14 71
e 14 77
e 14 78
e 14 79
e 15 27
e 15 29
e 15 38
e 15 39
e 15 40
e 15 42
e 15 43
e 15 59
e 15 64
e 15 65
e 15 69
e 15 71
e 16 21
e 16 22
e 16 29
e 16 46
e 16 47
e 16 48
e 16 54
e 16 56
e 16 65
e 16 76
e 16 77
e 16 80
e 17 20
e 17 22
e 17 23
e 17 24
e 17 31
e 17 38
e 17 40
e 17 43
e 17 57
e 17 61
e 17 67
e 17 73
e 17 75
e 17 76
e 18 28
e 18 34
e 18 40
e 18 42
e 18 48
e 18 49
e 18 52
e 18 56
e 18 62
e 18 72
e 18 80
e 19 25
e 19 27
e 19 42
e 19 49
e 19 53
e 19 68
e 20 25
e 20 37
e 20 38
e 20 40
e 20 42
e 20 54
e 20 57
e 20 61
e 20 78
e 21 23
e 21 24
e 21 28
e 21 40
e 21 41
e 21 53
e 21 54
e 21 56
e 21 58
e 21 66
e 21 75
e 22 25
e 22 28
e 22 30
e 22 35
e 22 38
e 22 45
e 22 47
e 22 55
e 22 63
e 22 71
e 22 74
e 23 24
e 23 43
e 23 52
e 23 62
e 23 65
e 23 66
e 23 67
e 23 71
e 23 72
e 24 25
e 24 33
e 24 35
e 24 47
e 24 50
e 24 62
e 24 77
e 25 33
e 25 34
e 25 42
e 25 44
e 25 45
e 25 52
e 25 56
e 25 60
e 25 64
e 25 67
e 25 74
e 25 75
e 26 34
e 26 42
e 26 43
e 26 45
e 26 56
e 26 63
e 26 69
e 26 71
e 27 29
e 27 30
e 27 31
e 27 33
e 27 38
e 27 40
e 27 43
e 27 49
e 27 52
e 27 59
e 27 71
e 28 45
e 28 48
e 28 51
e 28 58
e 28 63
e 28 66
e 28 77
e 29 30
e 29 35
e 29 48
e 29 51
e 29 60
e 29 72
e 29 74
e 29 75
e 30 31
e 30 33
e 30 42
e 30 48
e 30 55
e 30 62
e 30 75
e 30 78
e 31 36
e 31 37
e 31 42
e 31 62
e 31 63
e 31 64
e 31 67
e 31 72
e 31 73
e 31 74
e 32 34
e 32 39
e 32 48
e 32 60
e 32 69
e 32 74
e 33 34
e 33 38
e 33 40
e 33 43
e 33 50
e 33 51
e 33 54
e 33 63
e 33 66
e 33 67
e 33 77
e 34 40
e 34 44
e 34 46
e 34 49
e 34 52
e 34 53
e 34 55
e 34 57
e 34 67
e 34 68
e 34 70
e 34 76
e 35 36
e 35 39
e 35 41
e 35 42
e 35 44
e 35 48
e 35 53
e 35 56
e 35 59
e 35 60
e 35 61
e 35 63
e 35 78
e 36 37
e 36 45
e 36 50
e 36 59
e 36 65
e 36 76
e 37 39
e 37 44
e 37 56
e 37 60
e 37 61
e 37 62
e 37 68
e 37 73
e 37 74
e 37 78
e 38 41
e 38 43
e 38 54
e 38 56
e 38 61
e 38 65
e 38 73
e 39 44
e 39 51
e 39 59
e 39 61
e 39 72
e 39 76
e 40 42
e 40 45
e 40 47
e 40 50
e 40 63
e 40 68
e 40 69
e 40 72
e 40 75
e 40 76
e 40 77
e 41 43
e 41 50
e 41 51
e 41 59
e 41 70
e 41 72
e 41 77
e 41 78
e 42 43
e 42 47
e 42 48
e 42 49
e 42 51
e 42 59
e 42 61
e 42 62
e 42 69
e 42 76
e 42 80
e 43 46
e 43 51
e 43 54
e 43 59
e 43 60
e 43 61
e 43 66
e 43 70
e 43 74
e 44 49
e 44 52
e 44 68
e 44 74
e 44 75
e 44 80
e 45 66
e 45 68
e 45 71
e 46 48
e 46 50
e 46 54
e 46 56
e 46 60
e 46 63
e 46 65
e 46 72
e 46 73
e 46 74
e 47 50
e 47 54
e 47 56
e 47 57
e 47 66
e 47 69
e 47 75
e 47 78
e 48 52
e 48 54
e 48 56
e 48 57
e 48 58
e 48 60
e 48 62
e 48 64
e 48 65
e 48 67
e 48 72
e 49 53
e 49 64
e 49 66
e 49 69
e 49 72
e 49 73
e 49 74
e 49 78
e 50 52
e 50 55
e 50 58
e 50 65
e 50 71
e 51 55
e 51 57
e 51 61
e 51 64
e 51 67
e 51 69
e 51 70
e 51 72
e 51 75
e 52 66
e 52 69
e 52 74
e 52 76
e 53 55
e 53 59
e 53 60
e 53 65
e 53 68
e 53 77
e 54 67
e 54 73
e 54 78
e 54 80
e 55 58
e 55 59
e 55 61
e 55 73
e 56 60
e 56 62
e 56 65
e 56 68
e 57 60
e 57 69
e 57 75
e 57 77
e 57 79
e 58 64
e 58 66
e 58 67
e 58 80
e 59 61
e 59 67
e 59 76
e 60 61
e 60 64
e 60 65
e 60 66
e 60 71
e 60 75
e 60 77
e 60 79
e 61 66
e 61 68
e 62 64
e 62 66
e 62 72
e 62 75
e 62 78
e 63 76
e 63 79
e 64 66
e 64 69
e 64 75
e 65 67
e 65 71
e 65 74
e 65 78
e 66 77
e 66 79
e 67 68
e 70 76
e 70 77
e 71 72
e 71 76
e 71 77
e 71 78
e 73 74
e 73 76
e 73 79
e 73 80
e 75 80
e 76 77
e 76 80
e 77 78
e 79 80
